Name: Ing0607-3
Courses: 86
Rooms: 18
Days: 5
Periods_per_day: 5
Curricula: 61
Min_Max_Daily_Lectures: 2 4
UnavailabilityConstraints: 478
RoomConstraints: 197

COURSES:
c0012 t000 3 3 52 0
c0013 t001 3 3 16 0
c0014 t002 3 3 45 0
c0035 t002 3 3 20 0
c0036 t003 3 3 23 0
c0045 t004 3 3 110 0
c0052 t005 3 3 169 0
c0055 t006 3 3 60 0
c0057 t007 3 3 60 0
c0060 t008 3 3 100 0
c0094 t009 3 3 90 0
c0098 t010 3 3 80 0
c0104 t011 3 3 80 0
c0107 t012 3 3 90 0
c0112 t013 3 3 90 0
c0114 t014 3 3 80 0
c0116 t005 3 3 139 0
c0117 t015 3 3 139 0
c0130 t016 3 2 105 0
c0148 t017 3 3 105 0
c0149 t018 3 3 105 0
c0150 t019 3 2 105 1
c0163 t020 3 2 115 0
c0177 t021 3 3 80 0
c0179 t022 3 3 80 0
c0181 t023 3 3 130 0
c0198 t024 3 3 80 0
c0210 t009 3 3 130 0
c0214 t025 3 3 130 0
c0218 t026 3 3 122 0
c0223 t001 3 3 105 0
c0224 t027 3 3 126 0
c0226 t028 3 3 120 0
c0227 t029 3 3 80 0
c0233 t030 3 3 46 0
c0249 t031 3 3 50 0
c0254 t032 3 3 120 0
c0271 t033 3 3 120 0
c0409 t034 3 3 25 0
c0416 t030 3 3 12 0
c0420 t035 3 3 50 0
c0441 t036 3 3 54 0
c0447 t036 3 3 32 0
c0456 t037 3 3 66 0
c0457 t038 3 3 73 0
c0465 t039 3 3 66 0
c0486 t040 3 3 37 0
c0491 t041 3 1 8 1
c0498 t042 3 3 30 0
c0501 t043 3 3 15 0
c0506 t044 3 3 14 0
c0527 t045 3 3 36 0
c0510 t046 5 4 69 1
c0798 t047 5 4 8 1
c0670 t026 3 3 25 0
c0738 t048 3 2 23 0
c0745 t049 3 3 40 0
c0773 t050 3 3 9 0
c0814 t051 3 3 5 0
c0815 t051 3 3 5 0
c0828 t052 3 3 16 0
c0844 t053 3 3 20 0
c0741 t054 6 4 113 1
c0845 t055 3 3 60 0
c0850 t056 3 3 60 0
c0851 t057 3 3 20 0
c0854 t058 7 2 15 1
c0856 t059 7 2 20 1
c0864 t060 7 2 5 1
c0866 t061 7 2 20 1
c0869 t062 7 2 20 1
c0882 t063 7 2 10 1
c0884 t064 7 2 50 1
c0898 t065 3 3 8 0
c0901 t066 3 3 105 0
c0933 t067 3 3 25 0
c0947 t068 7 2 10 1
c0953 t033 7 2 40 1
c0969 t069 7 2 40 1
c0972 t070 7 2 15 1
c0978 t071 7 2 50 1
c0985 t057 7 2 40 1
c1007 t072 3 3 110 0
c1044 t073 7 2 55 0
c1148 t074 3 3 12 0
c0196 t075 6 4 105 1

ROOMS:
r25 40 1
r36 42 1
r37 42 1
r38 48 0
r34 50 1
r27 65 0
r51 78 0
rB 216 1
rD 216 1
rF 216 1
rG 216 2
rA 312 0
r50 75 0
r52 60 0
rDS1 100 1
rDS2 60 1
rN 30 3
rEr1 70 2

CURRICULA:
q000 3 c0094 c0107 c0112 
q001 3 c0098 c0104 c0114 
q002 2 c0116 c0117 
q003 3 c0210 c0214 c0226 
q004 3 c0210 c0214 c0163 
q005 4 c0224 c0012 c0013 c0014 
q006 4 c0224 c0012 c0223 c0218 
q007 4 c0224 c0773 c0013 c0014 
q008 2 c0035 c0036 
q009 2 c0441 c0014 
q010 2 c0898 c0036 
q011 3 c0045 c0057 c1007 
q012 3 c0052 c0055 c0060 
q013 1 c0741 
q016 3 c0218 c0223 c0224 
q017 2 c0224 c0773 
q018 2 c0227 c0233 
q019 2 c0227 c0249 
q020 3 c0177 c0179 c0181 
q021 3 c0254 c0271 c0198 
q022 1 c0196 
q023 3 c0130 c0901 c0972 
q024 3 c0130 c0901 c0953 
q025 3 c0130 c0901 c0978 
q026 4 c0148 c0149 c0150 c0882 
q027 4 c0148 c0149 c0150 c0969 
q028 4 c0148 c0149 c0150 c0898 
q029 4 c0148 c0149 c0150 c0884 
q030 2 c0163 c0947 
q031 2 c0163 c0985 
q032 2 c0163 c1044 
q034 3 c1007 c0045 c0181 
q035 4 c0254 c0060 c0052 c0271 
q037 1 c0745 
q038 3 c0456 c0741 c0745 
q039 2 c0456 c0741 
q040 3 c0456 c0457 c0196 
q041 1 c0465 
q042 2 c0465 c0498 
q044 3 c0409 c0670 c0420 
q045 3 c0420 c0933 c0441 
q046 1 c0447 
q047 4 c0486 c0738 c0745 c0741 
q048 3 c0486 c0745 c0741 
q049 4 c0486 c0506 c0745 c0741 
q050 2 c0491 c0457 
q051 2 c0498 c0738 
q052 2 c0501 c0457 
q053 4 c0052 c0510 c0117 c0116 
q054 5 c0052 c0510 c0527 c0117 c0116 
q056 4 c0798 c0035 c0012 c0036 
q057 6 c0814 c0815 c0012 c0218 c0441 c0014 
q058 7 c0447 c0828 c0012 c0218 c0441 c0014 c1148 
q059 1 c0527 
q060 2 c0233 c0828 
q061 2 c0233 c0416 
q062 3 c0845 c0850 c0856 
q063 3 c0845 c0850 c0866 
q064 3 c0845 c0850 c0869 
q065 3 c0844 c0851 c0854 
q066 3 c0844 c0851 c0864 

UNAVAILABILITY_CONSTRAINTS:
c0012 0 0 
c0012 0 1 
c0012 0 2 
c0012 0 3 
c0012 0 4 
c0012 4 0 
c0012 4 2 
c0012 4 3 
c0013 0 0 
c0013 0 2 
c0013 1 2 
c0013 2 2 
c0013 3 2 
c0013 4 0 
c0013 4 2 
c0013 4 4 
c0014 0 2 
c0014 1 2 
c0014 2 2 
c0014 3 2 
c0014 4 0 
c0014 4 1 
c0014 4 2 
c0014 4 3 
c0014 4 4 
c0035 0 2 
c0035 1 2 
c0035 2 2 
c0035 3 2 
c0035 4 0 
c0035 4 1 
c0035 4 2 
c0035 4 3 
c0035 4 4 
c0045 0 0 
c0045 0 4 
c0045 3 4 
c0045 4 0 
c0045 4 1 
c0045 4 2 
c0045 4 3 
c0045 4 4 
c0052 0 0 
c0052 0 1 
c0052 0 2 
c0052 1 0 
c0052 1 1 
c0052 1 2 
c0052 1 3 
c0052 1 4 
c0052 4 2 
c0052 4 3 
c0052 4 4 
c0057 0 0 
c0057 1 0 
c0057 2 0 
c0057 2 4 
c0057 3 0 
c0057 3 4 
c0057 4 0 
c0057 4 3 
c0057 4 4 
c0060 0 0 
c0060 0 1 
c0060 0 2 
c0060 4 0 
c0060 4 1 
c0060 4 2 
c0060 4 3 
c0060 4 4 
c0094 0 2 
c0094 1 2 
c0094 2 2 
c0094 2 3 
c0094 2 4 
c0094 3 2 
c0094 4 2 
c0094 4 3 
c0094 4 4 
c0098 0 0 
c0098 0 1 
c0098 0 2 
c0098 0 3 
c0098 0 4 
c0098 4 0 
c0098 4 1 
c0098 4 2 
c0098 4 3 
c0098 4 4 
c0104 0 0 
c0104 0 1 
c0104 0 2 
c0104 4 0 
c0104 4 1 
c0104 4 2 
c0104 4 3 
c0104 4 4 
c0107 0 0 
c0107 0 1 
c0107 0 2 
c0107 0 3 
c0107 0 4 
c0107 4 2 
c0107 4 3 
c0107 4 4 
c0112 3 0 
c0112 3 1 
c0112 3 2 
c0112 3 3 
c0112 3 4 
c0112 4 0 
c0112 4 1 
c0112 4 2 
c0112 4 3 
c0112 4 4 
c0114 0 0 
c0114 1 0 
c0114 2 0 
c0114 2 3 
c0114 2 4 
c0114 3 0 
c0114 3 1 
c0114 3 2 
c0114 3 3 
c0114 3 4 
c0116 0 0 
c0116 0 1 
c0116 0 2 
c0116 1 0 
c0116 1 1 
c0116 1 2 
c0116 1 3 
c0116 1 4 
c0117 0 2 
c0117 1 2 
c0117 1 3 
c0117 2 2 
c0117 3 2 
c0117 4 2 
c0130 0 0 
c0130 0 1 
c0130 0 2 
c0130 0 3 
c0130 0 4 
c0130 2 0 
c0130 2 1 
c0130 2 2 
c0130 3 2 
c0130 4 2 
c0130 4 4 
c0148 0 0 
c0148 0 1 
c0148 0 2 
c0148 1 2 
c0148 1 4 
c0148 2 1 
c0148 2 2 
c0148 3 4 
c0148 4 3 
c0148 4 4 
c0149 0 2 
c0149 0 4 
c0149 1 2 
c0149 1 4 
c0149 2 1 
c0149 2 2 
c0149 2 3 
c0149 2 4 
c0149 3 3 
c0149 3 4 
c0149 4 3 
c0149 4 4 
c0150 0 2 
c0150 1 2 
c0150 1 4 
c0150 2 1 
c0150 2 2 
c0163 2 1 
c0163 2 2 
c0163 3 2 
c0163 4 2 
c0163 4 4 
c0177 0 2 
c0177 1 0 
c0177 1 2 
c0177 2 0 
c0177 2 2 
c0177 3 2 
c0177 4 0 
c0177 4 2 
c0177 4 3 
c0177 4 4 
c0179 1 2 
c0179 2 2 
c0179 3 2 
c0179 4 0 
c0179 4 1 
c0179 4 2 
c0179 4 3 
c0179 4 4 
c0181 0 0 
c0181 0 2 
c0181 1 0 
c0181 1 2 
c0181 2 0 
c0181 2 2 
c0181 3 0 
c0181 3 2 
c0181 4 0 
c0181 4 2 
c0181 4 3 
c0181 4 4 
c0198 0 0 
c0198 0 1 
c0198 0 2 
c0198 0 3 
c0198 0 4 
c0198 1 2 
c0198 1 3 
c0198 1 4 
c0198 2 2 
c0198 2 3 
c0198 2 4 
c0198 3 2 
c0198 3 3 
c0198 3 4 
c0198 4 2 
c0210 0 2 
c0210 1 2 
c0210 2 2 
c0210 2 3 
c0210 2 4 
c0210 3 2 
c0210 4 2 
c0210 4 3 
c0210 4 4 
c0214 0 0 
c0214 0 1 
c0214 0 2 
c0214 0 3 
c0214 0 4 
c0214 1 0 
c0214 1 1 
c0214 1 2 
c0214 4 3 
c0214 4 4 
c0223 0 0 
c0223 0 2 
c0223 1 2 
c0223 2 2 
c0223 3 2 
c0223 4 0 
c0223 4 2 
c0223 4 4 
c0224 0 4 
c0224 1 4 
c0224 2 4 
c0224 3 4 
c0224 4 0 
c0224 4 2 
c0224 4 3 
c0224 4 4 
c0226 4 3 
c0226 4 4 
c0227 0 0 
c0227 0 1 
c0227 0 2 
c0227 0 3 
c0227 4 1 
c0227 4 2 
c0227 4 3 
c0227 4 4 
c0254 0 0 
c0254 1 0 
c0254 2 0 
c0254 4 0 
c0254 4 1 
c0254 4 2 
c0254 4 3 
c0254 4 4 
c0420 0 0 
c0420 0 1 
c0420 0 2 
c0420 0 3 
c0420 0 4 
c0420 1 0 
c0420 1 1 
c0420 1 2 
c0441 0 2 
c0441 1 2 
c0441 3 0 
c0441 3 1 
c0441 3 2 
c0441 3 3 
c0441 3 4 
c0441 4 2 
c0447 0 2 
c0447 1 2 
c0447 3 0 
c0447 3 1 
c0447 3 2 
c0447 3 3 
c0447 3 4 
c0447 4 2 
c0456 0 0 
c0456 0 1 
c0456 0 2 
c0456 0 3 
c0456 0 4 
c0456 4 0 
c0456 4 1 
c0456 4 2 
c0456 4 3 
c0456 4 4 
c0457 3 2 
c0457 3 3 
c0457 3 4 
c0457 4 0 
c0457 4 1 
c0457 4 2 
c0457 4 3 
c0457 4 4 
c0486 0 0 
c0486 0 1 
c0486 0 2 
c0486 0 3 
c0486 0 4 
c0486 1 0 
c0486 1 1 
c0486 3 0 
c0486 3 1 
c0486 3 2 
c0486 3 3 
c0486 3 4 
c0486 4 0 
c0486 4 1 
c0498 0 0 
c0498 0 1 
c0498 0 2 
c0498 4 2 
c0498 4 3 
c0498 4 4 
c0501 0 0 
c0501 0 1 
c0501 1 0 
c0501 4 0 
c0501 4 1 
c0501 4 2 
c0501 4 3 
c0501 4 4 
c0506 0 0 
c0506 0 1 
c0506 0 2 
c0506 4 0 
c0506 4 1 
c0506 4 2 
c0506 4 3 
c0506 4 4 
c0527 0 0 
c0527 0 1 
c0527 0 2 
c0527 0 3 
c0527 0 4 
c0527 4 3 
c0527 4 4 
c0738 0 0 
c0738 0 1 
c0738 0 2 
c0738 0 3 
c0738 0 4 
c0738 1 0 
c0738 1 1 
c0738 1 2 
c0738 1 3 
c0738 1 4 
c0738 4 0 
c0738 4 1 
c0738 4 2 
c0738 4 3 
c0738 4 4 
c0745 0 0 
c0745 0 1 
c0745 0 2 
c0745 4 2 
c0745 4 3 
c0745 4 4 
c0773 2 0 
c0773 2 1 
c0773 2 2 
c0773 2 3 
c0773 3 0 
c0773 3 1 
c0773 3 2 
c0773 3 3 
c0814 2 3 
c0814 2 4 
c0815 2 3 
c0815 2 4 
c0828 0 0 
c0828 0 2 
c0828 1 2 
c0828 2 2 
c0828 3 2 
c0828 3 4 
c0828 4 2 
c0828 4 4 
c0844 2 1 
c0844 2 2 
c0844 3 2 
c0844 4 2 
c0844 4 4 
c0741 1 3 
c0741 1 4 
c0741 3 0 
c0741 3 1 
c0741 3 2 
c0741 3 3 
c0741 3 4 
c0741 4 4 
c0845 0 2 
c0845 1 2 
c0845 1 4 
c0845 2 1 
c0845 2 2 
c0850 0 2 
c0850 0 3 
c0850 0 4 
c0850 1 2 
c0850 1 4 
c0850 2 1 
c0850 2 2 
c0850 2 3 
c0850 2 4 
c0850 3 4 
c0850 4 3 
c0850 4 4 
c0851 2 1 
c0851 2 2 
c0851 3 2 
c0851 4 2 
c0851 4 4 
c0898 0 2 
c0898 1 2 
c0898 2 2 
c0898 3 2 
c0898 3 3 
c0898 3 4 
c0898 4 4 
c0901 2 1 
c0901 2 2 
c0901 3 2 
c0901 4 2 
c0901 4 4 
c0933 0 2 
c0933 1 2 
c0933 1 3 
c0933 1 4 
c0933 2 2 
c0933 3 2 
c0933 4 2 
c0933 4 4 
c1007 4 3 
c1007 4 4 
c1148 0 0 
c1148 0 2 
c1148 1 0 
c1148 1 2 
c1148 2 2 
c1148 3 2 
c1148 4 2 
c0196 0 0 
c0196 0 1 
c0196 0 2 
c0196 4 0 
c0196 4 1 
c0196 4 2 
c0196 4 3 
c0196 4 4 

ROOM_CONSTRAINTS:
c0012 rB
c0012 rDS2
c0013 rG
c0013 rEr1
c0014 r51
c0014 rEr1
c0035 r34
c0036 r27
c0036 rDS2
c0045 r27
c0045 rA
c0045 rDS1
c0052 r37
c0052 r34
c0052 r50
c0055 r34
c0055 rDS1
c0057 r38
c0057 rG
c0057 rA
c0057 rDS2
c0057 rN
c0060 r51
c0094 r25
c0094 r27
c0094 rG
c0098 rA
c0098 r50
c0104 rF
c0104 rDS2
c0107 r34
c0107 rB
c0107 rG
c0107 r52
c0112 r36
c0114 r36
c0114 r37
c0114 rDS1
c0116 r36
c0116 rA
c0116 rEr1
c0117 r36
c0117 r37
c0117 r38
c0117 rF
c0130 r38
c0130 r34
c0130 r52
c0130 rN
c0148 r36
c0149 r36
c0149 r51
c0149 rF
c0149 r50
c0150 r27
c0150 rF
c0150 rEr1
c0163 r36
c0163 r34
c0163 r50
c0163 r52
c0163 rDS1
c0177 r37
c0177 rB
c0177 r52
c0177 rDS1
c0177 rDS2
c0181 r34
c0198 r27
c0198 r51
c0198 rB
c0198 r52
c0198 rDS1
c0210 rA
c0214 r51
c0214 rDS1
c0218 r36
c0218 rA
c0218 rDS2
c0218 rN
c0223 rDS1
c0223 rN
c0224 r50
c0224 r52
c0227 r50
c0227 rDS2
c0233 r36
c0233 r38
c0233 rA
c0254 r25
c0254 r52
c0271 r37
c0271 r34
c0271 r50
c0409 r25
c0409 rG
c0409 rDS1
c0416 r51
c0416 rF
c0416 rEr1
c0420 r50
c0420 rDS2
c0441 r37
c0441 r38
c0441 r51
c0447 rN
c0456 rN
c0457 r25
c0457 rF
c0457 rDS2
c0465 r38
c0465 rN
c0486 rG
c0486 rA
c0491 r50
c0498 rD
c0498 rDS1
c0506 rB
c0506 rG
c0510 rB
c0510 r52
c0510 rDS1
c0510 rDS2
c0670 rD
c0670 rF
c0670 rA
c0670 rEr1
c0738 r51
c0738 rF
c0738 rDS1
c0738 rEr1
c0745 r38
c0745 rB
c0773 r25
c0773 r37
c0773 rB
c0773 rG
c0773 rDS1
c0814 r36
c0814 r51
c0828 r27
c0844 r36
c0844 r37
c0844 r27
c0741 r38
c0741 r27
c0741 r51
c0741 rN
c0845 rEr1
c0850 r51
c0850 rN
c0856 r25
c0856 r37
c0856 r34
c0856 rF
c0864 r27
c0864 rB
c0864 rA
c0864 rDS1
c0864 rEr1
c0866 rF
c0882 rDS2
c0882 rEr1
c0884 r38
c0884 r27
c0884 r51
c0884 rA
c0898 r25
c0898 rF
c0898 rDS2
c0947 r37
c0947 r34
c0947 rEr1
c0953 r50
c0953 rDS2
c0969 rDS1
c0969 rN
c0972 rF
c0972 rDS1
c0978 r38
c0978 rG
c0978 rN
c0985 r25
c0985 r38
c0985 rF
c0985 rA
c0985 rDS2
c1007 r36
c1007 r38
c1007 r27
c1007 rDS2
c1044 r25
c1044 r34
c1044 r51
c1044 rD
c0196 r25
c0196 r37

END.
